1044.06,54.24,65.0
1056.99,53.57,64.21
962.69,58.82,70.49
1129.04,50.15,60.11
1053.75,53.74,64.4
1077.36,52.56,62.99
1010.39,56.04,67.17
1089.37,51.98,62.3
1064.07,53.22,63.78
1032.3,54.85,65.74
968.0,58.5,70.11
1000.12,56.62,67.86
1022.35,55.39,66.38
1010.43,56.04,67.16
1058.65,53.49,64.11
1008.96,56.12,67.26
1038.58,54.52,65.34
1129.98,50.11,60.06
941.34,60.15,72.09
1066.66,53.09,63.62
